p cnf 190 1384
1 2 3 4 5 6 7 8 9 10 0
11 12 13 14 15 16 17 18 19 20 0
21 22 23 24 25 26 27 28 29 30 0
31 32 33 34 35 36 37 38 39 40 0
41 42 43 44 45 46 47 48 49 50 0
51 52 53 54 55 56 57 58 59 60 0
61 62 63 64 65 66 67 68 69 70 0
71 72 73 74 75 76 77 78 79 80 0
81 82 83 84 85 86 87 88 89 90 0
91 92 93 94 95 96 97 98 99 100 0
101 102 103 104 105 106 107 108 109 110 0
111 112 113 114 115 116 117 118 119 120 0
121 122 123 124 125 126 127 128 129 130 0
131 132 133 134 135 136 137 138 139 140 0
141 142 143 144 145 146 147 148 149 150 0
151 152 153 154 155 156 157 158 159 160 0
161 162 163 164 165 166 167 168 169 170 0
171 172 173 174 175 176 177 178 179 180 0
181 182 183 184 185 186 187 188 189 190 0
-1 -2 0
-1 -3 0
-1 -4 0
-1 -5 0
-1 -6 0
-1 -7 0
-1 -8 0
-1 -9 0
-1 -10 0
-2 -3 0
-2 -4 0
-2 -5 0
-2 -6 0
-2 -7 0
-2 -8 0
-2 -9 0
-2 -10 0
-3 -4 0
-3 -5 0
-3 -6 0
-3 -7 0
-3 -8 0
-3 -9 0
-3 -10 0
-4 -5 0
-4 -6 0
-4 -7 0
-4 -8 0
-4 -9 0
-4 -10 0
-5 -6 0
-5 -7 0
-5 -8 0
-5 -9 0
-5 -10 0
-6 -7 0
-6 -8 0
-6 -9 0
-6 -10 0
-7 -8 0
-7 -9 0
-7 -10 0
-8 -9 0
-8 -10 0
-9 -10 0
-11 -12 0
-11 -13 0
-11 -14 0
-11 -15 0
-11 -16 0
-11 -17 0
-11 -18 0
-11 -19 0
-11 -20 0
-12 -13 0
-12 -14 0
-12 -15 0
-12 -16 0
-12 -17 0
-12 -18 0
-12 -19 0
-12 -20 0
-13 -14 0
-13 -15 0
-13 -16 0
-13 -17 0
-13 -18 0
-13 -19 0
-13 -20 0
-14 -15 0
-14 -16 0
-14 -17 0
-14 -18 0
-14 -19 0
-14 -20 0
-15 -16 0
-15 -17 0
-15 -18 0
-15 -19 0
-15 -20 0
-16 -17 0
-16 -18 0
-16 -19 0
-16 -20 0
-17 -18 0
-17 -19 0
-17 -20 0
-18 -19 0
-18 -20 0
-19 -20 0
-21 -22 0
-21 -23 0
-21 -24 0
-21 -25 0
-21 -26 0
-21 -27 0
-21 -28 0
-21 -29 0
-21 -30 0
-22 -23 0
-22 -24 0
-22 -25 0
-22 -26 0
-22 -27 0
-22 -28 0
-22 -29 0
-22 -30 0
-23 -24 0
-23 -25 0
-23 -26 0
-23 -27 0
-23 -28 0
-23 -29 0
-23 -30 0
-24 -25 0
-24 -26 0
-24 -27 0
-24 -28 0
-24 -29 0
-24 -30 0
-25 -26 0
-25 -27 0
-25 -28 0
-25 -29 0
-25 -30 0
-26 -27 0
-26 -28 0
-26 -29 0
-26 -30 0
-27 -28 0
-27 -29 0
-27 -30 0
-28 -29 0
-28 -30 0
-29 -30 0
-31 -32 0
-31 -33 0
-31 -34 0
-31 -35 0
-31 -36 0
-31 -37 0
-31 -38 0
-31 -39 0
-31 -40 0
-32 -33 0
-32 -34 0
-32 -35 0
-32 -36 0
-32 -37 0
-32 -38 0
-32 -39 0
-32 -40 0
-33 -34 0
-33 -35 0
-33 -36 0
-33 -37 0
-33 -38 0
-33 -39 0
-33 -40 0
-34 -35 0
-34 -36 0
-34 -37 0
-34 -38 0
-34 -39 0
-34 -40 0
-35 -36 0
-35 -37 0
-35 -38 0
-35 -39 0
-35 -40 0
-36 -37 0
-36 -38 0
-36 -39 0
-36 -40 0
-37 -38 0
-37 -39 0
-37 -40 0
-38 -39 0
-38 -40 0
-39 -40 0
-41 -42 0
-41 -43 0
-41 -44 0
-41 -45 0
-41 -46 0
-41 -47 0
-41 -48 0
-41 -49 0
-41 -50 0
-42 -43 0
-42 -44 0
-42 -45 0
-42 -46 0
-42 -47 0
-42 -48 0
-42 -49 0
-42 -50 0
-43 -44 0
-43 -45 0
-43 -46 0
-43 -47 0
-43 -48 0
-43 -49 0
-43 -50 0
-44 -45 0
-44 -46 0
-44 -47 0
-44 -48 0
-44 -49 0
-44 -50 0
-45 -46 0
-45 -47 0
-45 -48 0
-45 -49 0
-45 -50 0
-46 -47 0
-46 -48 0
-46 -49 0
-46 -50 0
-47 -48 0
-47 -49 0
-47 -50 0
-48 -49 0
-48 -50 0
-49 -50 0
-51 -52 0
-51 -53 0
-51 -54 0
-51 -55 0
-51 -56 0
-51 -57 0
-51 -58 0
-51 -59 0
-51 -60 0
-52 -53 0
-52 -54 0
-52 -55 0
-52 -56 0
-52 -57 0
-52 -58 0
-52 -59 0
-52 -60 0
-53 -54 0
-53 -55 0
-53 -56 0
-53 -57 0
-53 -58 0
-53 -59 0
-53 -60 0
-54 -55 0
-54 -56 0
-54 -57 0
-54 -58 0
-54 -59 0
-54 -60 0
-55 -56 0
-55 -57 0
-55 -58 0
-55 -59 0
-55 -60 0
-56 -57 0
-56 -58 0
-56 -59 0
-56 -60 0
-57 -58 0
-57 -59 0
-57 -60 0
-58 -59 0
-58 -60 0
-59 -60 0
-61 -62 0
-61 -63 0
-61 -64 0
-61 -65 0
-61 -66 0
-61 -67 0
-61 -68 0
-61 -69 0
-61 -70 0
-62 -63 0
-62 -64 0
-62 -65 0
-62 -66 0
-62 -67 0
-62 -68 0
-62 -69 0
-62 -70 0
-63 -64 0
-63 -65 0
-63 -66 0
-63 -67 0
-63 -68 0
-63 -69 0
-63 -70 0
-64 -65 0
-64 -66 0
-64 -67 0
-64 -68 0
-64 -69 0
-64 -70 0
-65 -66 0
-65 -67 0
-65 -68 0
-65 -69 0
-65 -70 0
-66 -67 0
-66 -68 0
-66 -69 0
-66 -70 0
-67 -68 0
-67 -69 0
-67 -70 0
-68 -69 0
-68 -70 0
-69 -70 0
-71 -72 0
-71 -73 0
-71 -74 0
-71 -75 0
-71 -76 0
-71 -77 0
-71 -78 0
-71 -79 0
-71 -80 0
-72 -73 0
-72 -74 0
-72 -75 0
-72 -76 0
-72 -77 0
-72 -78 0
-72 -79 0
-72 -80 0
-73 -74 0
-73 -75 0
-73 -76 0
-73 -77 0
-73 -78 0
-73 -79 0
-73 -80 0
-74 -75 0
-74 -76 0
-74 -77 0
-74 -78 0
-74 -79 0
-74 -80 0
-75 -76 0
-75 -77 0
-75 -78 0
-75 -79 0
-75 -80 0
-76 -77 0
-76 -78 0
-76 -79 0
-76 -80 0
-77 -78 0
-77 -79 0
-77 -80 0
-78 -79 0
-78 -80 0
-79 -80 0
-81 -82 0
-81 -83 0
-81 -84 0
-81 -85 0
-81 -86 0
-81 -87 0
-81 -88 0
-81 -89 0
-81 -90 0
-82 -83 0
-82 -84 0
-82 -85 0
-82 -86 0
-82 -87 0
-82 -88 0
-82 -89 0
-82 -90 0
-83 -84 0
-83 -85 0
-83 -86 0
-83 -87 0
-83 -88 0
-83 -89 0
-83 -90 0
-84 -85 0
-84 -86 0
-84 -87 0
-84 -88 0
-84 -89 0
-84 -90 0
-85 -86 0
-85 -87 0
-85 -88 0
-85 -89 0
-85 -90 0
-86 -87 0
-86 -88 0
-86 -89 0
-86 -90 0
-87 -88 0
-87 -89 0
-87 -90 0
-88 -89 0
-88 -90 0
-89 -90 0
-91 -92 0
-91 -93 0
-91 -94 0
-91 -95 0
-91 -96 0
-91 -97 0
-91 -98 0
-91 -99 0
-91 -100 0
-92 -93 0
-92 -94 0
-92 -95 0
-92 -96 0
-92 -97 0
-92 -98 0
-92 -99 0
-92 -100 0
-93 -94 0
-93 -95 0
-93 -96 0
-93 -97 0
-93 -98 0
-93 -99 0
-93 -100 0
-94 -95 0
-94 -96 0
-94 -97 0
-94 -98 0
-94 -99 0
-94 -100 0
-95 -96 0
-95 -97 0
-95 -98 0
-95 -99 0
-95 -100 0
-96 -97 0
-96 -98 0
-96 -99 0
-96 -100 0
-97 -98 0
-97 -99 0
-97 -100 0
-98 -99 0
-98 -100 0
-99 -100 0
-101 -102 0
-101 -103 0
-101 -104 0
-101 -105 0
-101 -106 0
-101 -107 0
-101 -108 0
-101 -109 0
-101 -110 0
-102 -103 0
-102 -104 0
-102 -105 0
-102 -106 0
-102 -107 0
-102 -108 0
-102 -109 0
-102 -110 0
-103 -104 0
-103 -105 0
-103 -106 0
-103 -107 0
-103 -108 0
-103 -109 0
-103 -110 0
-104 -105 0
-104 -106 0
-104 -107 0
-104 -108 0
-104 -109 0
-104 -110 0
-105 -106 0
-105 -107 0
-105 -108 0
-105 -109 0
-105 -110 0
-106 -107 0
-106 -108 0
-106 -109 0
-106 -110 0
-107 -108 0
-107 -109 0
-107 -110 0
-108 -109 0
-108 -110 0
-109 -110 0
-111 -112 0
-111 -113 0
-111 -114 0
-111 -115 0
-111 -116 0
-111 -117 0
-111 -118 0
-111 -119 0
-111 -120 0
-112 -113 0
-112 -114 0
-112 -115 0
-112 -116 0
-112 -117 0
-112 -118 0
-112 -119 0
-112 -120 0
-113 -114 0
-113 -115 0
-113 -116 0
-113 -117 0
-113 -118 0
-113 -119 0
-113 -120 0
-114 -115 0
-114 -116 0
-114 -117 0
-114 -118 0
-114 -119 0
-114 -120 0
-115 -116 0
-115 -117 0
-115 -118 0
-115 -119 0
-115 -120 0
-116 -117 0
-116 -118 0
-116 -119 0
-116 -120 0
-117 -118 0
-117 -119 0
-117 -120 0
-118 -119 0
-118 -120 0
-119 -120 0
-121 -122 0
-121 -123 0
-121 -124 0
-121 -125 0
-121 -126 0
-121 -127 0
-121 -128 0
-121 -129 0
-121 -130 0
-122 -123 0
-122 -124 0
-122 -125 0
-122 -126 0
-122 -127 0
-122 -128 0
-122 -129 0
-122 -130 0
-123 -124 0
-123 -125 0
-123 -126 0
-123 -127 0
-123 -128 0
-123 -129 0
-123 -130 0
-124 -125 0
-124 -126 0
-124 -127 0
-124 -128 0
-124 -129 0
-124 -130 0
-125 -126 0
-125 -127 0
-125 -128 0
-125 -129 0
-125 -130 0
-126 -127 0
-126 -128 0
-126 -129 0
-126 -130 0
-127 -128 0
-127 -129 0
-127 -130 0
-128 -129 0
-128 -130 0
-129 -130 0
-131 -132 0
-131 -133 0
-131 -134 0
-131 -135 0
-131 -136 0
-131 -137 0
-131 -138 0
-131 -139 0
-131 -140 0
-132 -133 0
-132 -134 0
-132 -135 0
-132 -136 0
-132 -137 0
-132 -138 0
-132 -139 0
-132 -140 0
-133 -134 0
-133 -135 0
-133 -136 0
-133 -137 0
-133 -138 0
-133 -139 0
-133 -140 0
-134 -135 0
-134 -136 0
-134 -137 0
-134 -138 0
-134 -139 0
-134 -140 0
-135 -136 0
-135 -137 0
-135 -138 0
-135 -139 0
-135 -140 0
-136 -137 0
-136 -138 0
-136 -139 0
-136 -140 0
-137 -138 0
-137 -139 0
-137 -140 0
-138 -139 0
-138 -140 0
-139 -140 0
-141 -142 0
-141 -143 0
-141 -144 0
-141 -145 0
-141 -146 0
-141 -147 0
-141 -148 0
-141 -149 0
-141 -150 0
-142 -143 0
-142 -144 0
-142 -145 0
-142 -146 0
-142 -147 0
-142 -148 0
-142 -149 0
-142 -150 0
-143 -144 0
-143 -145 0
-143 -146 0
-143 -147 0
-143 -148 0
-143 -149 0
-143 -150 0
-144 -145 0
-144 -146 0
-144 -147 0
-144 -148 0
-144 -149 0
-144 -150 0
-145 -146 0
-145 -147 0
-145 -148 0
-145 -149 0
-145 -150 0
-146 -147 0
-146 -148 0
-146 -149 0
-146 -150 0
-147 -148 0
-147 -149 0
-147 -150 0
-148 -149 0
-148 -150 0
-149 -150 0
-151 -152 0
-151 -153 0
-151 -154 0
-151 -155 0
-151 -156 0
-151 -157 0
-151 -158 0
-151 -159 0
-151 -160 0
-152 -153 0
-152 -154 0
-152 -155 0
-152 -156 0
-152 -157 0
-152 -158 0
-152 -159 0
-152 -160 0
-153 -154 0
-153 -155 0
-153 -156 0
-153 -157 0
-153 -158 0
-153 -159 0
-153 -160 0
-154 -155 0
-154 -156 0
-154 -157 0
-154 -158 0
-154 -159 0
-154 -160 0
-155 -156 0
-155 -157 0
-155 -158 0
-155 -159 0
-155 -160 0
-156 -157 0
-156 -158 0
-156 -159 0
-156 -160 0
-157 -158 0
-157 -159 0
-157 -160 0
-158 -159 0
-158 -160 0
-159 -160 0
-161 -162 0
-161 -163 0
-161 -164 0
-161 -165 0
-161 -166 0
-161 -167 0
-161 -168 0
-161 -169 0
-161 -170 0
-162 -163 0
-162 -164 0
-162 -165 0
-162 -166 0
-162 -167 0
-162 -168 0
-162 -169 0
-162 -170 0
-163 -164 0
-163 -165 0
-163 -166 0
-163 -167 0
-163 -168 0
-163 -169 0
-163 -170 0
-164 -165 0
-164 -166 0
-164 -167 0
-164 -168 0
-164 -169 0
-164 -170 0
-165 -166 0
-165 -167 0
-165 -168 0
-165 -169 0
-165 -170 0
-166 -167 0
-166 -168 0
-166 -169 0
-166 -170 0
-167 -168 0
-167 -169 0
-167 -170 0
-168 -169 0
-168 -170 0
-169 -170 0
-171 -172 0
-171 -173 0
-171 -174 0
-171 -175 0
-171 -176 0
-171 -177 0
-171 -178 0
-171 -179 0
-171 -180 0
-172 -173 0
-172 -174 0
-172 -175 0
-172 -176 0
-172 -177 0
-172 -178 0
-172 -179 0
-172 -180 0
-173 -174 0
-173 -175 0
-173 -176 0
-173 -177 0
-173 -178 0
-173 -179 0
-173 -180 0
-174 -175 0
-174 -176 0
-174 -177 0
-174 -178 0
-174 -179 0
-174 -180 0
-175 -176 0
-175 -177 0
-175 -178 0
-175 -179 0
-175 -180 0
-176 -177 0
-176 -178 0
-176 -179 0
-176 -180 0
-177 -178 0
-177 -179 0
-177 -180 0
-178 -179 0
-178 -180 0
-179 -180 0
-181 -182 0
-181 -183 0
-181 -184 0
-181 -185 0
-181 -186 0
-181 -187 0
-181 -188 0
-181 -189 0
-181 -190 0
-182 -183 0
-182 -184 0
-182 -185 0
-182 -186 0
-182 -187 0
-182 -188 0
-182 -189 0
-182 -190 0
-183 -184 0
-183 -185 0
-183 -186 0
-183 -187 0
-183 -188 0
-183 -189 0
-183 -190 0
-184 -185 0
-184 -186 0
-184 -187 0
-184 -188 0
-184 -189 0
-184 -190 0
-185 -186 0
-185 -187 0
-185 -188 0
-185 -189 0
-185 -190 0
-186 -187 0
-186 -188 0
-186 -189 0
-186 -190 0
-187 -188 0
-187 -189 0
-187 -190 0
-188 -189 0
-188 -190 0
-189 -190 0
-1 -51 0
-2 -52 0
-3 -53 0
-4 -54 0
-5 -55 0
-6 -56 0
-7 -57 0
-8 -58 0
-9 -59 0
-10 -60 0
-1 -131 0
-2 -132 0
-3 -133 0
-4 -134 0
-5 -135 0
-6 -136 0
-7 -137 0
-8 -138 0
-9 -139 0
-10 -140 0
-1 -181 0
-2 -182 0
-3 -183 0
-4 -184 0
-5 -185 0
-6 -186 0
-7 -187 0
-8 -188 0
-9 -189 0
-10 -190 0
-11 -111 0
-12 -112 0
-13 -113 0
-14 -114 0
-15 -115 0
-16 -116 0
-17 -117 0
-18 -118 0
-19 -119 0
-20 -120 0
-11 -121 0
-12 -122 0
-13 -123 0
-14 -124 0
-15 -125 0
-16 -126 0
-17 -127 0
-18 -128 0
-19 -129 0
-20 -130 0
-21 -41 0
-22 -42 0
-23 -43 0
-24 -44 0
-25 -45 0
-26 -46 0
-27 -47 0
-28 -48 0
-29 -49 0
-30 -50 0
-21 -81 0
-22 -82 0
-23 -83 0
-24 -84 0
-25 -85 0
-26 -86 0
-27 -87 0
-28 -88 0
-29 -89 0
-30 -90 0
-21 -101 0
-22 -102 0
-23 -103 0
-24 -104 0
-25 -105 0
-26 -106 0
-27 -107 0
-28 -108 0
-29 -109 0
-30 -110 0
-21 -111 0
-22 -112 0
-23 -113 0
-24 -114 0
-25 -115 0
-26 -116 0
-27 -117 0
-28 -118 0
-29 -119 0
-30 -120 0
-21 -131 0
-22 -132 0
-23 -133 0
-24 -134 0
-25 -135 0
-26 -136 0
-27 -137 0
-28 -138 0
-29 -139 0
-30 -140 0
-21 -171 0
-22 -172 0
-23 -173 0
-24 -174 0
-25 -175 0
-26 -176 0
-27 -177 0
-28 -178 0
-29 -179 0
-30 -180 0
-31 -91 0
-32 -92 0
-33 -93 0
-34 -94 0
-35 -95 0
-36 -96 0
-37 -97 0
-38 -98 0
-39 -99 0
-40 -100 0
-31 -131 0
-32 -132 0
-33 -133 0
-34 -134 0
-35 -135 0
-36 -136 0
-37 -137 0
-38 -138 0
-39 -139 0
-40 -140 0
-31 -141 0
-32 -142 0
-33 -143 0
-34 -144 0
-35 -145 0
-36 -146 0
-37 -147 0
-38 -148 0
-39 -149 0
-40 -150 0
-31 -161 0
-32 -162 0
-33 -163 0
-34 -164 0
-35 -165 0
-36 -166 0
-37 -167 0
-38 -168 0
-39 -169 0
-40 -170 0
-41 -61 0
-42 -62 0
-43 -63 0
-44 -64 0
-45 -65 0
-46 -66 0
-47 -67 0
-48 -68 0
-49 -69 0
-50 -70 0
-41 -91 0
-42 -92 0
-43 -93 0
-44 -94 0
-45 -95 0
-46 -96 0
-47 -97 0
-48 -98 0
-49 -99 0
-50 -100 0
-41 -101 0
-42 -102 0
-43 -103 0
-44 -104 0
-45 -105 0
-46 -106 0
-47 -107 0
-48 -108 0
-49 -109 0
-50 -110 0
-41 -121 0
-42 -122 0
-43 -123 0
-44 -124 0
-45 -125 0
-46 -126 0
-47 -127 0
-48 -128 0
-49 -129 0
-50 -130 0
-41 -161 0
-42 -162 0
-43 -163 0
-44 -164 0
-45 -165 0
-46 -166 0
-47 -167 0
-48 -168 0
-49 -169 0
-50 -170 0
-51 -71 0
-52 -72 0
-53 -73 0
-54 -74 0
-55 -75 0
-56 -76 0
-57 -77 0
-58 -78 0
-59 -79 0
-60 -80 0
-51 -81 0
-52 -82 0
-53 -83 0
-54 -84 0
-55 -85 0
-56 -86 0
-57 -87 0
-58 -88 0
-59 -89 0
-60 -90 0
-51 -141 0
-52 -142 0
-53 -143 0
-54 -144 0
-55 -145 0
-56 -146 0
-57 -147 0
-58 -148 0
-59 -149 0
-60 -150 0
-51 -151 0
-52 -152 0
-53 -153 0
-54 -154 0
-55 -155 0
-56 -156 0
-57 -157 0
-58 -158 0
-59 -159 0
-60 -160 0
-51 -171 0
-52 -172 0
-53 -173 0
-54 -174 0
-55 -175 0
-56 -176 0
-57 -177 0
-58 -178 0
-59 -179 0
-60 -180 0
-61 -121 0
-62 -122 0
-63 -123 0
-64 -124 0
-65 -125 0
-66 -126 0
-67 -127 0
-68 -128 0
-69 -129 0
-70 -130 0
-61 -131 0
-62 -132 0
-63 -133 0
-64 -134 0
-65 -135 0
-66 -136 0
-67 -137 0
-68 -138 0
-69 -139 0
-70 -140 0
-61 -141 0
-62 -142 0
-63 -143 0
-64 -144 0
-65 -145 0
-66 -146 0
-67 -147 0
-68 -148 0
-69 -149 0
-70 -150 0
-61 -151 0
-62 -152 0
-63 -153 0
-64 -154 0
-65 -155 0
-66 -156 0
-67 -157 0
-68 -158 0
-69 -159 0
-70 -160 0
-71 -91 0
-72 -92 0
-73 -93 0
-74 -94 0
-75 -95 0
-76 -96 0
-77 -97 0
-78 -98 0
-79 -99 0
-80 -100 0
-71 -121 0
-72 -122 0
-73 -123 0
-74 -124 0
-75 -125 0
-76 -126 0
-77 -127 0
-78 -128 0
-79 -129 0
-80 -130 0
-71 -131 0
-72 -132 0
-73 -133 0
-74 -134 0
-75 -135 0
-76 -136 0
-77 -137 0
-78 -138 0
-79 -139 0
-80 -140 0
-71 -151 0
-72 -152 0
-73 -153 0
-74 -154 0
-75 -155 0
-76 -156 0
-77 -157 0
-78 -158 0
-79 -159 0
-80 -160 0
-81 -91 0
-82 -92 0
-83 -93 0
-84 -94 0
-85 -95 0
-86 -96 0
-87 -97 0
-88 -98 0
-89 -99 0
-90 -100 0
-81 -121 0
-82 -122 0
-83 -123 0
-84 -124 0
-85 -125 0
-86 -126 0
-87 -127 0
-88 -128 0
-89 -129 0
-90 -130 0
-81 -171 0
-82 -172 0
-83 -173 0
-84 -174 0
-85 -175 0
-86 -176 0
-87 -177 0
-88 -178 0
-89 -179 0
-90 -180 0
-81 -181 0
-82 -182 0
-83 -183 0
-84 -184 0
-85 -185 0
-86 -186 0
-87 -187 0
-88 -188 0
-89 -189 0
-90 -190 0
-91 -111 0
-92 -112 0
-93 -113 0
-94 -114 0
-95 -115 0
-96 -116 0
-97 -117 0
-98 -118 0
-99 -119 0
-100 -120 0
-91 -161 0
-92 -162 0
-93 -163 0
-94 -164 0
-95 -165 0
-96 -166 0
-97 -167 0
-98 -168 0
-99 -169 0
-100 -170 0
-101 -111 0
-102 -112 0
-103 -113 0
-104 -114 0
-105 -115 0
-106 -116 0
-107 -117 0
-108 -118 0
-109 -119 0
-110 -120 0
-101 -121 0
-102 -122 0
-103 -123 0
-104 -124 0
-105 -125 0
-106 -126 0
-107 -127 0
-108 -128 0
-109 -129 0
-110 -130 0
-101 -161 0
-102 -162 0
-103 -163 0
-104 -164 0
-105 -165 0
-106 -166 0
-107 -167 0
-108 -168 0
-109 -169 0
-110 -170 0
-101 -171 0
-102 -172 0
-103 -173 0
-104 -174 0
-105 -175 0
-106 -176 0
-107 -177 0
-108 -178 0
-109 -179 0
-110 -180 0
-101 -181 0
-102 -182 0
-103 -183 0
-104 -184 0
-105 -185 0
-106 -186 0
-107 -187 0
-108 -188 0
-109 -189 0
-110 -190 0
-111 -121 0
-112 -122 0
-113 -123 0
-114 -124 0
-115 -125 0
-116 -126 0
-117 -127 0
-118 -128 0
-119 -129 0
-120 -130 0
-111 -131 0
-112 -132 0
-113 -133 0
-114 -134 0
-115 -135 0
-116 -136 0
-117 -137 0
-118 -138 0
-119 -139 0
-120 -140 0
-121 -131 0
-122 -132 0
-123 -133 0
-124 -134 0
-125 -135 0
-126 -136 0
-127 -137 0
-128 -138 0
-129 -139 0
-130 -140 0
-131 -141 0
-132 -142 0
-133 -143 0
-134 -144 0
-135 -145 0
-136 -146 0
-137 -147 0
-138 -148 0
-139 -149 0
-140 -150 0
-151 -181 0
-152 -182 0
-153 -183 0
-154 -184 0
-155 -185 0
-156 -186 0
-157 -187 0
-158 -188 0
-159 -189 0
-160 -190 0
-161 -181 0
-162 -182 0
-163 -183 0
-164 -184 0
-165 -185 0
-166 -186 0
-167 -187 0
-168 -188 0
-169 -189 0
-170 -190 0
-171 -181 0
-172 -182 0
-173 -183 0
-174 -184 0
-175 -185 0
-176 -186 0
-177 -187 0
-178 -188 0
-179 -189 0
-180 -190 0
